# set
set V := C1 C2 C3 C4 C5 C6 C7 C8 C9 C10 ;
set F := F11 F12 F13 F11_1 F11_2 F11_3 F11_4 F12_1 F12_2 F12_3 F12_4 F13_1 F13_2 F13_3 F13_4 ;
set D0 := N0;
set Dσ := Nσ;

# param
param Cf := 200;		# ECV fixed cost
param C := 200;		# ECV max load
param Q := 60.63;		# ECV/BSV battery level
param r := 1;		# ECV consumption

param Cr := 100;		# recharging cost
param Ct := 10;		# travel cost
param Cs ;		# battery swap cost
param n := 10;		# number of customers
param g := 1.47;	# recharging rate

param m :=
N0 0
C1 1
C2 7
C3 14
C4 12
C5 16
C6 26
C7 11
C8 16
C9 17
C10 19
F11 0
F11_1 0
F11_2 0
F11_3 0
F11_4 0
F12 0
F12_1 0
F12_2 0
F12_3 0
F12_4 0
F13 0
F13_1 0
F13_2 0
F13_3 0
F13_4 0
Nσ 0
;

param e :=
N0 0
C1 0
C2 101
C3 95
C4 0
C5 37
C6 0
C7 0
C8 32
C9 0
C10 0
F11 0
F11_1 0
F11_2 0
F11_3 0
F11_4 0
F12 0
F12_1 0
F12_2 0
F12_3 0
F12_4 0
F13 0
F13_1 0
F13_2 0
F13_3 0
F13_4 0
Nσ 0
;

param l :=
N0 230
C1 194
C2 111
C3 105
C4 204
C5 47
C6 192
C7 198
C8 42
C9 208
C10 190
F11 230
F11_1 230
F11_2 230
F11_3 230
F11_4 230
F12 230
F12_1 230
F12_2 230
F12_3 230
F12_4 230
F13 230
F13_1 230
F13_2 230
F13_3 230
F13_4 230
Nσ 230
;

param s :=
N0 0
C1 10
C2 10
C3 10
C4 10
C5 10
C6 10
C7 10
C8 10
C9 10
C10 10
F11 0
F11_1 0
F11_2 0
F11_3 0
F11_4 0
F12 0
F12_1 0
F12_2 0
F12_3 0
F12_4 0
F13 0
F13_1 0
F13_2 0
F13_3 0
F13_4 0
Nσ 0
;

param d : N0 C1 C2 C3 C4 C5 C6 C7 C8 C9 C10 F11 F11_1 F11_2 F11_3 F11_4 F12 F12_1 F12_2 F12_3 F12_4 F13 F13_1 F13_2 F13_3 F13_4 Nσ  :=
N0 0.0000 25.6125 24.3311 4.4721 15.8114 5.0000 27.5862 21.0950 29.1548 11.1803 29.1548 0.0000 0.0000 0.0000 0.0000 0.0000 21.1896 21.1896 21.1896 21.1896 21.1896 19.1050 19.1050 19.1050 19.1050 19.1050 0.0000
C1 25.6125 0.0000 12.6491 25.0599 21.5870 29.0000 53.1507 18.0278 21.0238 31.9531 5.0990 25.6125 25.6125 25.6125 25.6125 25.6125 23.0000 23.0000 23.0000 23.0000 23.0000 6.7082 6.7082 6.7082 6.7082 6.7082 25.6125
C2 24.3311 12.6491 0.0000 26.0000 12.7279 25.6320 49.6488 6.7082 8.6023 34.0147 11.0454 24.3311 24.3311 24.3311 24.3311 24.3311 11.7047 11.7047 11.7047 11.7047 11.7047 13.4536 13.4536 13.4536 13.4536 13.4536 24.3311
C3 4.4721 25.0599 26.0000 0.0000 19.2354 9.2195 29.2062 23.7697 31.7805 8.0623 29.1548 4.4721 4.4721 4.4721 4.4721 4.4721 24.5967 24.5967 24.5967 24.5967 24.5967 18.3576 18.3576 18.3576 18.3576 18.3576 4.4721
C4 15.8114 21.5870 12.7279 19.2354 0.0000 15.0000 37.6962 6.7082 14.1421 26.9258 22.3607 15.8114 15.8114 15.8114 15.8114 15.8114 5.3852 5.3852 5.3852 5.3852 5.3852 18.0278 18.0278 18.0278 18.0278 18.0278 15.8114
C5 5.0000 29.0000 25.6320 9.2195 15.0000 0.0000 24.4131 21.2132 29.0689 14.1421 32.0156 5.0000 5.0000 5.0000 5.0000 5.0000 20.0998 20.0998 20.0998 20.0998 20.0998 22.8035 22.8035 22.8035 22.8035 22.8035 5.0000
C6 27.5862 53.1507 49.6488 29.2062 37.6962 24.4131 0.0000 44.3847 51.5461 26.0000 56.4004 27.5862 27.5862 27.5862 27.5862 27.5862 41.7612 41.7612 41.7612 41.7612 41.7612 46.6905 46.6905 46.6905 46.6905 46.6905 27.5862
C7 21.0950 18.0278 6.7082 23.7697 6.7082 21.2132 44.3847 0.0000 8.0623 31.7805 17.4642 21.0950 21.0950 21.0950 21.0950 21.0950 5.0990 5.0990 5.0990 5.0990 5.0990 16.5529 16.5529 16.5529 16.5529 16.5529 21.0950
C8 29.1548 21.0238 8.6023 31.7805 14.1421 29.0689 51.5461 8.0623 0.0000 39.8121 18.4391 29.1548 29.1548 29.1548 29.1548 29.1548 9.8489 9.8489 9.8489 9.8489 9.8489 21.9317 21.9317 21.9317 21.9317 21.9317 29.1548
C9 11.1803 31.9531 34.0147 8.0623 26.9258 14.1421 26.0000 31.7805 39.8121 0.0000 36.4005 11.1803 11.1803 11.1803 11.1803 11.1803 32.3110 32.3110 32.3110 32.3110 32.3110 25.2982 25.2982 25.2982 25.2982 25.2982 11.1803
C10 29.1548 5.0990 11.0454 29.1548 22.3607 32.0156 56.4004 17.4642 18.4391 36.4005 0.0000 29.1548 29.1548 29.1548 29.1548 29.1548 22.5610 22.5610 22.5610 22.5610 22.5610 11.1803 11.1803 11.1803 11.1803 11.1803 29.1548
F11 0.0000 25.6125 24.3311 4.4721 15.8114 5.0000 27.5862 21.0950 29.1548 11.1803 29.1548 0.0000 0.0000 0.0000 0.0000 0.0000 21.1896 21.1896 21.1896 21.1896 21.1896 19.1050 19.1050 19.1050 19.1050 19.1050 0.0000
F11_1 0.0000 25.6125 24.3311 4.4721 15.8114 5.0000 27.5862 21.0950 29.1548 11.1803 29.1548 0.0000 0.0000 0.0000 0.0000 0.0000 21.1896 21.1896 21.1896 21.1896 21.1896 19.1050 19.1050 19.1050 19.1050 19.1050 0.0000
F11_2 0.0000 25.6125 24.3311 4.4721 15.8114 5.0000 27.5862 21.0950 29.1548 11.1803 29.1548 0.0000 0.0000 0.0000 0.0000 0.0000 21.1896 21.1896 21.1896 21.1896 21.1896 19.1050 19.1050 19.1050 19.1050 19.1050 0.0000
F11_3 0.0000 25.6125 24.3311 4.4721 15.8114 5.0000 27.5862 21.0950 29.1548 11.1803 29.1548 0.0000 0.0000 0.0000 0.0000 0.0000 21.1896 21.1896 21.1896 21.1896 21.1896 19.1050 19.1050 19.1050 19.1050 19.1050 0.0000
F11_4 0.0000 25.6125 24.3311 4.4721 15.8114 5.0000 27.5862 21.0950 29.1548 11.1803 29.1548 0.0000 0.0000 0.0000 0.0000 0.0000 21.1896 21.1896 21.1896 21.1896 21.1896 19.1050 19.1050 19.1050 19.1050 19.1050 0.0000
F12 21.1896 23.0000 11.7047 24.5967 5.3852 20.0998 41.7612 5.0990 9.8489 32.3110 22.5610 21.1896 21.1896 21.1896 21.1896 21.1896 0.0000 0.0000 0.0000 0.0000 0.0000 20.8806 20.8806 20.8806 20.8806 20.8806 21.1896
F12_1 21.1896 23.0000 11.7047 24.5967 5.3852 20.0998 41.7612 5.0990 9.8489 32.3110 22.5610 21.1896 21.1896 21.1896 21.1896 21.1896 0.0000 0.0000 0.0000 0.0000 0.0000 20.8806 20.8806 20.8806 20.8806 20.8806 21.1896
F12_2 21.1896 23.0000 11.7047 24.5967 5.3852 20.0998 41.7612 5.0990 9.8489 32.3110 22.5610 21.1896 21.1896 21.1896 21.1896 21.1896 0.0000 0.0000 0.0000 0.0000 0.0000 20.8806 20.8806 20.8806 20.8806 20.8806 21.1896
F12_3 21.1896 23.0000 11.7047 24.5967 5.3852 20.0998 41.7612 5.0990 9.8489 32.3110 22.5610 21.1896 21.1896 21.1896 21.1896 21.1896 0.0000 0.0000 0.0000 0.0000 0.0000 20.8806 20.8806 20.8806 20.8806 20.8806 21.1896
F12_4 21.1896 23.0000 11.7047 24.5967 5.3852 20.0998 41.7612 5.0990 9.8489 32.3110 22.5610 21.1896 21.1896 21.1896 21.1896 21.1896 0.0000 0.0000 0.0000 0.0000 0.0000 20.8806 20.8806 20.8806 20.8806 20.8806 21.1896
F13 19.1050 6.7082 13.4536 18.3576 18.0278 22.8035 46.6905 16.5529 21.9317 25.2982 11.1803 19.1050 19.1050 19.1050 19.1050 19.1050 20.8806 20.8806 20.8806 20.8806 20.8806 0.0000 0.0000 0.0000 0.0000 0.0000 19.1050
F13_1 19.1050 6.7082 13.4536 18.3576 18.0278 22.8035 46.6905 16.5529 21.9317 25.2982 11.1803 19.1050 19.1050 19.1050 19.1050 19.1050 20.8806 20.8806 20.8806 20.8806 20.8806 0.0000 0.0000 0.0000 0.0000 0.0000 19.1050
F13_2 19.1050 6.7082 13.4536 18.3576 18.0278 22.8035 46.6905 16.5529 21.9317 25.2982 11.1803 19.1050 19.1050 19.1050 19.1050 19.1050 20.8806 20.8806 20.8806 20.8806 20.8806 0.0000 0.0000 0.0000 0.0000 0.0000 19.1050
F13_3 19.1050 6.7082 13.4536 18.3576 18.0278 22.8035 46.6905 16.5529 21.9317 25.2982 11.1803 19.1050 19.1050 19.1050 19.1050 19.1050 20.8806 20.8806 20.8806 20.8806 20.8806 0.0000 0.0000 0.0000 0.0000 0.0000 19.1050
F13_4 19.1050 6.7082 13.4536 18.3576 18.0278 22.8035 46.6905 16.5529 21.9317 25.2982 11.1803 19.1050 19.1050 19.1050 19.1050 19.1050 20.8806 20.8806 20.8806 20.8806 20.8806 0.0000 0.0000 0.0000 0.0000 0.0000 19.1050
Nσ 0.0000 25.6125 24.3311 4.4721 15.8114 5.0000 27.5862 21.0950 29.1548 11.1803 29.1548 0.0000 0.0000 0.0000 0.0000 0.0000 21.1896 21.1896 21.1896 21.1896 21.1896 19.1050 19.1050 19.1050 19.1050 19.1050 0.0000
;

param t : N0 C1 C2 C3 C4 C5 C6 C7 C8 C9 C10 F11 F11_1 F11_2 F11_3 F11_4 F12 F12_1 F12_2 F12_3 F12_4 F13 F13_1 F13_2 F13_3 F13_4 Nσ  :=
N0 0.0000 25.6125 24.3311 4.4721 15.8114 5.0000 27.5862 21.0950 29.1548 11.1803 29.1548 0.0000 0.0000 0.0000 0.0000 0.0000 21.1896 21.1896 21.1896 21.1896 21.1896 19.1050 19.1050 19.1050 19.1050 19.1050 0.0000
C1 25.6125 0.0000 12.6491 25.0599 21.5870 29.0000 53.1507 18.0278 21.0238 31.9531 5.0990 25.6125 25.6125 25.6125 25.6125 25.6125 23.0000 23.0000 23.0000 23.0000 23.0000 6.7082 6.7082 6.7082 6.7082 6.7082 25.6125
C2 24.3311 12.6491 0.0000 26.0000 12.7279 25.6320 49.6488 6.7082 8.6023 34.0147 11.0454 24.3311 24.3311 24.3311 24.3311 24.3311 11.7047 11.7047 11.7047 11.7047 11.7047 13.4536 13.4536 13.4536 13.4536 13.4536 24.3311
C3 4.4721 25.0599 26.0000 0.0000 19.2354 9.2195 29.2062 23.7697 31.7805 8.0623 29.1548 4.4721 4.4721 4.4721 4.4721 4.4721 24.5967 24.5967 24.5967 24.5967 24.5967 18.3576 18.3576 18.3576 18.3576 18.3576 4.4721
C4 15.8114 21.5870 12.7279 19.2354 0.0000 15.0000 37.6962 6.7082 14.1421 26.9258 22.3607 15.8114 15.8114 15.8114 15.8114 15.8114 5.3852 5.3852 5.3852 5.3852 5.3852 18.0278 18.0278 18.0278 18.0278 18.0278 15.8114
C5 5.0000 29.0000 25.6320 9.2195 15.0000 0.0000 24.4131 21.2132 29.0689 14.1421 32.0156 5.0000 5.0000 5.0000 5.0000 5.0000 20.0998 20.0998 20.0998 20.0998 20.0998 22.8035 22.8035 22.8035 22.8035 22.8035 5.0000
C6 27.5862 53.1507 49.6488 29.2062 37.6962 24.4131 0.0000 44.3847 51.5461 26.0000 56.4004 27.5862 27.5862 27.5862 27.5862 27.5862 41.7612 41.7612 41.7612 41.7612 41.7612 46.6905 46.6905 46.6905 46.6905 46.6905 27.5862
C7 21.0950 18.0278 6.7082 23.7697 6.7082 21.2132 44.3847 0.0000 8.0623 31.7805 17.4642 21.0950 21.0950 21.0950 21.0950 21.0950 5.0990 5.0990 5.0990 5.0990 5.0990 16.5529 16.5529 16.5529 16.5529 16.5529 21.0950
C8 29.1548 21.0238 8.6023 31.7805 14.1421 29.0689 51.5461 8.0623 0.0000 39.8121 18.4391 29.1548 29.1548 29.1548 29.1548 29.1548 9.8489 9.8489 9.8489 9.8489 9.8489 21.9317 21.9317 21.9317 21.9317 21.9317 29.1548
C9 11.1803 31.9531 34.0147 8.0623 26.9258 14.1421 26.0000 31.7805 39.8121 0.0000 36.4005 11.1803 11.1803 11.1803 11.1803 11.1803 32.3110 32.3110 32.3110 32.3110 32.3110 25.2982 25.2982 25.2982 25.2982 25.2982 11.1803
C10 29.1548 5.0990 11.0454 29.1548 22.3607 32.0156 56.4004 17.4642 18.4391 36.4005 0.0000 29.1548 29.1548 29.1548 29.1548 29.1548 22.5610 22.5610 22.5610 22.5610 22.5610 11.1803 11.1803 11.1803 11.1803 11.1803 29.1548
F11 0.0000 25.6125 24.3311 4.4721 15.8114 5.0000 27.5862 21.0950 29.1548 11.1803 29.1548 0.0000 0.0000 0.0000 0.0000 0.0000 21.1896 21.1896 21.1896 21.1896 21.1896 19.1050 19.1050 19.1050 19.1050 19.1050 0.0000
F11_1 0.0000 25.6125 24.3311 4.4721 15.8114 5.0000 27.5862 21.0950 29.1548 11.1803 29.1548 0.0000 0.0000 0.0000 0.0000 0.0000 21.1896 21.1896 21.1896 21.1896 21.1896 19.1050 19.1050 19.1050 19.1050 19.1050 0.0000
F11_2 0.0000 25.6125 24.3311 4.4721 15.8114 5.0000 27.5862 21.0950 29.1548 11.1803 29.1548 0.0000 0.0000 0.0000 0.0000 0.0000 21.1896 21.1896 21.1896 21.1896 21.1896 19.1050 19.1050 19.1050 19.1050 19.1050 0.0000
F11_3 0.0000 25.6125 24.3311 4.4721 15.8114 5.0000 27.5862 21.0950 29.1548 11.1803 29.1548 0.0000 0.0000 0.0000 0.0000 0.0000 21.1896 21.1896 21.1896 21.1896 21.1896 19.1050 19.1050 19.1050 19.1050 19.1050 0.0000
F11_4 0.0000 25.6125 24.3311 4.4721 15.8114 5.0000 27.5862 21.0950 29.1548 11.1803 29.1548 0.0000 0.0000 0.0000 0.0000 0.0000 21.1896 21.1896 21.1896 21.1896 21.1896 19.1050 19.1050 19.1050 19.1050 19.1050 0.0000
F12 21.1896 23.0000 11.7047 24.5967 5.3852 20.0998 41.7612 5.0990 9.8489 32.3110 22.5610 21.1896 21.1896 21.1896 21.1896 21.1896 0.0000 0.0000 0.0000 0.0000 0.0000 20.8806 20.8806 20.8806 20.8806 20.8806 21.1896
F12_1 21.1896 23.0000 11.7047 24.5967 5.3852 20.0998 41.7612 5.0990 9.8489 32.3110 22.5610 21.1896 21.1896 21.1896 21.1896 21.1896 0.0000 0.0000 0.0000 0.0000 0.0000 20.8806 20.8806 20.8806 20.8806 20.8806 21.1896
F12_2 21.1896 23.0000 11.7047 24.5967 5.3852 20.0998 41.7612 5.0990 9.8489 32.3110 22.5610 21.1896 21.1896 21.1896 21.1896 21.1896 0.0000 0.0000 0.0000 0.0000 0.0000 20.8806 20.8806 20.8806 20.8806 20.8806 21.1896
F12_3 21.1896 23.0000 11.7047 24.5967 5.3852 20.0998 41.7612 5.0990 9.8489 32.3110 22.5610 21.1896 21.1896 21.1896 21.1896 21.1896 0.0000 0.0000 0.0000 0.0000 0.0000 20.8806 20.8806 20.8806 20.8806 20.8806 21.1896
F12_4 21.1896 23.0000 11.7047 24.5967 5.3852 20.0998 41.7612 5.0990 9.8489 32.3110 22.5610 21.1896 21.1896 21.1896 21.1896 21.1896 0.0000 0.0000 0.0000 0.0000 0.0000 20.8806 20.8806 20.8806 20.8806 20.8806 21.1896
F13 19.1050 6.7082 13.4536 18.3576 18.0278 22.8035 46.6905 16.5529 21.9317 25.2982 11.1803 19.1050 19.1050 19.1050 19.1050 19.1050 20.8806 20.8806 20.8806 20.8806 20.8806 0.0000 0.0000 0.0000 0.0000 0.0000 19.1050
F13_1 19.1050 6.7082 13.4536 18.3576 18.0278 22.8035 46.6905 16.5529 21.9317 25.2982 11.1803 19.1050 19.1050 19.1050 19.1050 19.1050 20.8806 20.8806 20.8806 20.8806 20.8806 0.0000 0.0000 0.0000 0.0000 0.0000 19.1050
F13_2 19.1050 6.7082 13.4536 18.3576 18.0278 22.8035 46.6905 16.5529 21.9317 25.2982 11.1803 19.1050 19.1050 19.1050 19.1050 19.1050 20.8806 20.8806 20.8806 20.8806 20.8806 0.0000 0.0000 0.0000 0.0000 0.0000 19.1050
F13_3 19.1050 6.7082 13.4536 18.3576 18.0278 22.8035 46.6905 16.5529 21.9317 25.2982 11.1803 19.1050 19.1050 19.1050 19.1050 19.1050 20.8806 20.8806 20.8806 20.8806 20.8806 0.0000 0.0000 0.0000 0.0000 0.0000 19.1050
F13_4 19.1050 6.7082 13.4536 18.3576 18.0278 22.8035 46.6905 16.5529 21.9317 25.2982 11.1803 19.1050 19.1050 19.1050 19.1050 19.1050 20.8806 20.8806 20.8806 20.8806 20.8806 0.0000 0.0000 0.0000 0.0000 0.0000 19.1050
Nσ 0.0000 25.6125 24.3311 4.4721 15.8114 5.0000 27.5862 21.0950 29.1548 11.1803 29.1548 0.0000 0.0000 0.0000 0.0000 0.0000 21.1896 21.1896 21.1896 21.1896 21.1896 19.1050 19.1050 19.1050 19.1050 19.1050 0.0000
;
